# Node Net
2041   1
2640   1
3559   1
 34   1
 43   1
 33   1
1261   2
3300   2
900   2
 23   2
2281   2
 46   2
3567   3
 59   3
 35   3
3600   3
  3   3
121   3
3060   4
3546   4
541   4
2220   4
1801   4
1501   4
300   5
 28   5
 26   5
 37   5
361   5
1200   6
3564   6
2160   6
 40   6
  1   7
1081   7
 17   7
2641   7
 49   8
1441   8
1381   8
3544   9
660   9
3550   9
3361  10
 54  10
 50  10
 27  11
 39  11
481  11
